(set-info :source |printed by MathSAT|)
(declare-fun main@%tmp8.i_0_9 () Int)
(declare-fun .y.13 () Int)
(declare-fun .y.9 () Int)
(declare-fun .y.14 () Int)
(declare-fun main@%shadow.mem.3_0_3 () (Array Int Int))
(declare-fun .y.15 () (Array Int Int))
(declare-fun main@%x.0.i_0_1 () Int)
(declare-fun .y.16 () Int)
(declare-fun main@%tmp2.i_0_9 () Int)
(declare-fun .y.17 () Int)
(declare-fun .loc.10 () Bool)
(declare-fun .loc.18 () Bool)
(declare-fun .loc.11 () Bool)
(declare-fun .loc.19 () Bool)
(declare-fun .loc.12 () Bool)
(declare-fun .loc.20 () Bool)
(declare-fun main@%tmp55.i_0_0 () Int)
(define-fun .def_8 () Int (! main@%tmp8.i_0_9 :next |.y.13|))
(define-fun .def_10 () Int (! .y.9 :next |.y.14|))
(define-fun .def_12 () (Array Int Int) (! main@%shadow.mem.3_0_3 :next |.y.15|))
(define-fun .def_14 () Int (! main@%x.0.i_0_1 :next |.y.16|))
(define-fun .def_16 () Int (! main@%tmp2.i_0_9 :next |.y.17|))
(define-fun .def_18 () Bool (! .loc.10 :next |.loc.18|))
(define-fun .def_20 () Bool (! .loc.11 :next |.loc.19|))
(define-fun .def_22 () Bool (! .loc.12 :next |.loc.20|))
(define-fun .def_27 () Int (! main@%tmp55.i_0_0 :next |.xtv.1|))
(define-fun .def_65 () Bool (not .def_18))
(define-fun .def_33 () Bool (not .def_20))
(define-fun .def_202 () Bool (and .def_33 .def_65))
(define-fun .def_40 () Bool (not .def_22))
(define-fun .def_203 () Bool (! (and .def_40 .def_202) :init true))
(define-fun .def_191 () Bool (and .def_22 .def_33))
(define-fun .def_151 () Int (select .def_12 .def_27))
(define-fun .def_152 () Bool (= .def_151 45))
(define-fun .def_184 () Bool (not .def_152))
(define-fun .def_158 () Bool (<= .def_16 .def_14))
(define-fun .def_159 () Bool (not .def_158))
(define-fun .def_49 () Int (* (- 1) .def_27))
(define-fun .def_155 () Int (+ .def_14 .def_49))
(define-fun .def_156 () Int (+ .def_8 .def_155))
(define-fun .def_157 () Bool (= .def_156 0))
(define-fun .def_160 () Bool (and .def_157 .def_159))
(define-fun .def_28 () Bool (<= .def_27 0))
(define-fun .def_29 () Bool (not .def_28))
(define-fun .def_25 () Bool (<= .def_8 0))
(define-fun .def_30 () Bool (or .def_25 .def_29))
(define-fun .def_161 () Bool (and .def_30 .def_160))
(define-fun .def_26 () Bool (not .def_25))
(define-fun .def_162 () Bool (and .def_26 .def_161))
(define-fun .def_185 () Bool (and .def_162 .def_184))
(define-fun .def_186 () Bool (and .def_18 .def_185))
(define-fun .def_187 () Bool (and .loc.19 .def_186))
(define-fun .def_79 () Bool (not .loc.18))
(define-fun .def_188 () Bool (and .def_79 .def_187))
(define-fun .def_182 () Bool (= .def_14 .y.17))
(define-fun .def_177 () Bool (= .y.16 0))
(define-fun .def_36 () Bool (not .loc.19))
(define-fun .def_175 () Bool (and .loc.18 .def_36))
(define-fun .def_176 () Bool (and .def_65 .def_175))
(define-fun .def_178 () Bool (and .def_176 .def_177))
(define-fun .def_54 () Bool (<= .def_14 .def_10))
(define-fun .def_179 () Bool (and .def_54 .def_178))
(define-fun .def_38 () Bool (= .def_8 .y.13))
(define-fun .def_180 () Bool (and .def_38 .def_179))
(define-fun .def_98 () Bool (= .def_12 .y.15))
(define-fun .def_181 () Bool (and .def_98 .def_180))
(define-fun .def_183 () Bool (and .def_181 .def_182))
(define-fun .def_189 () Bool (or .def_183 .def_188))
(define-fun .def_173 () Bool (= .def_16 .y.17))
(define-fun .def_169 () Int (* (- 1) .y.16))
(define-fun .def_170 () Int (+ .def_14 .def_169))
(define-fun .def_171 () Bool (= .def_170 (- 1)))
(define-fun .def_163 () Bool (and .def_152 .def_162))
(define-fun .def_164 () Bool (and .def_18 .def_163))
(define-fun .def_165 () Bool (and .loc.18 .def_164))
(define-fun .def_166 () Bool (and .def_36 .def_165))
(define-fun .def_167 () Bool (and .def_38 .def_166))
(define-fun .def_168 () Bool (and .def_98 .def_167))
(define-fun .def_172 () Bool (and .def_168 .def_171))
(define-fun .def_174 () Bool (and .def_172 .def_173))
(define-fun .def_190 () Bool (or .def_174 .def_189))
(define-fun .def_192 () Bool (and .def_190 .def_191))
(define-fun .def_142 () Bool (and .def_18 .def_20))
(define-fun .def_143 () Bool (and .def_79 .def_142))
(define-fun .def_144 () Bool (and .def_36 .def_143))
(define-fun .def_145 () Bool (and .def_54 .def_144))
(define-fun .def_146 () Bool (and .def_38 .def_145))
(define-fun .def_147 () Bool (and .def_98 .def_146))
(define-fun .def_148 () Bool (and .def_40 .def_147))
(define-fun .def_68 () Bool (= .y.14 0))
(define-fun .def_149 () Bool (and .def_68 .def_148))
(define-fun .def_42 () Bool (= .def_14 .y.16))
(define-fun .def_150 () Bool (and .def_42 .def_149))
(define-fun .def_193 () Bool (or .def_150 .def_192))
(define-fun .def_137 () (Array Int Int) (store .def_12 .def_27 45))
(define-fun .def_138 () Bool (= .y.15 .def_137))
(define-fun .def_31 () Bool (and .def_26 .def_30))
(define-fun .def_128 () Bool (and .def_22 .def_31))
(define-fun .def_129 () Bool (and .def_33 .def_128))
(define-fun .def_130 () Bool (and .def_79 .def_129))
(define-fun .def_131 () Bool (and .def_36 .def_130))
(define-fun .def_132 () Bool (and .def_65 .def_131))
(define-fun .def_133 () Bool (and .def_38 .def_132))
(define-fun .def_134 () Bool (and .def_42 .def_133))
(define-fun .def_45 () Int (* (- 1) .y.14))
(define-fun .def_46 () Int (+ .def_10 .def_45))
(define-fun .def_47 () Bool (= .def_46 (- 1)))
(define-fun .def_135 () Bool (and .def_47 .def_134))
(define-fun .def_139 () Bool (and .def_135 .def_138))
(define-fun .def_50 () Int (+ .def_10 .def_49))
(define-fun .def_51 () Int (+ .def_8 .def_50))
(define-fun .def_52 () Bool (= .def_51 0))
(define-fun .def_140 () Bool (and .def_52 .def_139))
(define-fun .def_55 () Bool (not .def_54))
(define-fun .def_141 () Bool (and .def_55 .def_140))
(define-fun .def_194 () Bool (or .def_141 .def_193))
(define-fun .def_195 () Bool (and .loc.20 .def_194))
(define-fun .def_118 () Bool (and .loc.18 .def_20))
(define-fun .def_119 () Bool (and .loc.19 .def_118))
(define-fun .def_120 () Bool (and .def_65 .def_119))
(define-fun .def_121 () Bool (and .def_54 .def_120))
(define-fun .def_122 () Bool (and .def_38 .def_121))
(define-fun .def_123 () Bool (and .def_98 .def_122))
(define-fun .def_124 () Bool (and .def_40 .def_123))
(define-fun .def_125 () Bool (and .def_68 .def_124))
(define-fun .def_126 () Bool (and .def_42 .def_125))
(define-fun .def_57 () Bool (not .loc.20))
(define-fun .def_127 () Bool (and .def_57 .def_126))
(define-fun .def_196 () Bool (or .def_127 .def_195))
(define-fun .def_115 () (Array Int Int) (store .def_12 .def_27 44))
(define-fun .def_116 () Bool (= .y.15 .def_115))
(define-fun .def_32 () Bool (and .def_18 .def_31))
(define-fun .def_104 () Bool (and .def_20 .def_32))
(define-fun .def_105 () Bool (and .loc.18 .def_104))
(define-fun .def_106 () Bool (and .loc.19 .def_105))
(define-fun .def_107 () Bool (and .def_38 .def_106))
(define-fun .def_108 () Bool (and .def_40 .def_107))
(define-fun .def_109 () Bool (and .def_42 .def_108))
(define-fun .def_110 () Bool (and .def_47 .def_109))
(define-fun .def_111 () Bool (and .def_52 .def_110))
(define-fun .def_112 () Bool (and .def_55 .def_111))
(define-fun .def_113 () Bool (and .def_57 .def_112))
(define-fun .def_117 () Bool (and .def_113 .def_116))
(define-fun .def_197 () Bool (or .def_117 .def_196))
(define-fun .def_93 () Bool (and .def_18 .def_33))
(define-fun .def_94 () Bool (and .loc.19 .def_93))
(define-fun .def_95 () Bool (and .def_79 .def_94))
(define-fun .def_96 () Bool (and .def_54 .def_95))
(define-fun .def_97 () Bool (and .def_38 .def_96))
(define-fun .def_99 () Bool (and .def_97 .def_98))
(define-fun .def_100 () Bool (and .def_40 .def_99))
(define-fun .def_101 () Bool (and .def_68 .def_100))
(define-fun .def_102 () Bool (and .def_42 .def_101))
(define-fun .def_103 () Bool (and .def_57 .def_102))
(define-fun .def_198 () Bool (or .def_103 .def_197))
(define-fun .def_90 () (Array Int Int) (store .def_12 .def_27 43))
(define-fun .def_91 () Bool (= .y.15 .def_90))
(define-fun .def_77 () Bool (and .def_20 .def_31))
(define-fun .def_78 () Bool (and .loc.19 .def_77))
(define-fun .def_80 () Bool (and .def_78 .def_79))
(define-fun .def_81 () Bool (and .def_65 .def_80))
(define-fun .def_82 () Bool (and .def_38 .def_81))
(define-fun .def_83 () Bool (and .def_40 .def_82))
(define-fun .def_84 () Bool (and .def_42 .def_83))
(define-fun .def_85 () Bool (and .def_47 .def_84))
(define-fun .def_86 () Bool (and .def_52 .def_85))
(define-fun .def_87 () Bool (and .def_55 .def_86))
(define-fun .def_88 () Bool (and .def_57 .def_87))
(define-fun .def_92 () Bool (and .def_88 .def_91))
(define-fun .def_199 () Bool (or .def_92 .def_198))
(define-fun .def_74 () Bool (<= .y.16 0))
(define-fun .def_75 () Bool (not .def_74))
(define-fun .def_71 () Bool (<= .y.13 0))
(define-fun .def_72 () Bool (not .def_71))
(define-fun .def_63 () Bool (and .loc.18 .def_33))
(define-fun .def_64 () Bool (and .def_36 .def_63))
(define-fun .def_66 () Bool (and .def_64 .def_65))
(define-fun .def_67 () Bool (and .def_40 .def_66))
(define-fun .def_69 () Bool (and .def_67 .def_68))
(define-fun .def_70 () Bool (and .def_57 .def_69))
(define-fun .def_73 () Bool (and .def_70 .def_72))
(define-fun .def_76 () Bool (and .def_73 .def_75))
(define-fun .def_200 () Bool (or .def_76 .def_199))
(define-fun .def_60 () (Array Int Int) (store .def_12 .def_27 42))
(define-fun .def_61 () Bool (= .y.15 .def_60))
(define-fun .def_34 () Bool (and .def_32 .def_33))
(define-fun .def_35 () Bool (and .loc.18 .def_34))
(define-fun .def_37 () Bool (and .def_35 .def_36))
(define-fun .def_39 () Bool (and .def_37 .def_38))
(define-fun .def_41 () Bool (and .def_39 .def_40))
(define-fun .def_43 () Bool (and .def_41 .def_42))
(define-fun .def_48 () Bool (and .def_43 .def_47))
(define-fun .def_53 () Bool (and .def_48 .def_52))
(define-fun .def_56 () Bool (and .def_53 .def_55))
(define-fun .def_58 () Bool (and .def_56 .def_57))
(define-fun .def_62 () Bool (and .def_58 .def_61))
(define-fun .def_201 () Bool (! (or .def_62 .def_200) :trans true))
(define-fun .def_204 () Bool (and .def_20 .def_65))
(define-fun .def_205 () Bool (and .def_22 .def_204))
(define-fun .def_206 () Bool (! (not .def_205) :invar-property 0))
(assert true)
